(set-logic BV)

(synth-fun deobfucated ( (d (BitVec 64))  ) (BitVec 64)
	(
		(Start (BitVec 64)
			(
				(bvnot Start)
				(bvxor Start Start)
				(bvand Start Start)
				(bvor Start Start)
				(bvneg Start)
				(bvadd Start Start)
				(bvmul Start Start)
				(bvsub Start Start)
				d
			)
		)
	)
)

(constraint (= (deobfucated #x00000000169a95bf) #xffffffffe9656a40))
(constraint (= (deobfucated #x000000003b1dc0c6) #xffffffffc4e23f39))
(constraint (= (deobfucated #x00000000393dcaaa) #xffffffffc6c23555))
(constraint (= (deobfucated #x000000000cbd363c) #xfffffffff342c9c3))
(constraint (= (deobfucated #x0000000004d0bba8) #xfffffffffb2f4457))
(constraint (= (deobfucated #x000000001616194a) #xffffffffe9e9e6b5))
(constraint (= (deobfucated #x00000000123bb3b1) #xffffffffedc44c4e))
(constraint (= (deobfucated #x0000000006f13ead) #xfffffffff90ec152))
(constraint (= (deobfucated #x000000003ad51f0a) #xffffffffc52ae0f5))
(constraint (= (deobfucated #x0000000013b6a3c2) #xffffffffec495c3d))
(constraint (= (deobfucated #x0000000027daccc9) #xffffffffd8253336))
(constraint (= (deobfucated #x00000000095ab7de) #xfffffffff6a54821))
(constraint (= (deobfucated #x0000000013c93e67) #xffffffffec36c198))
(constraint (= (deobfucated #x00000000265a745e) #xffffffffd9a58ba1))
(constraint (= (deobfucated #x00000000291d62c5) #xffffffffd6e29d3a))
(constraint (= (deobfucated #x000000000d650ca8) #xfffffffff29af357))
(constraint (= (deobfucated #x00000000335523d5) #xffffffffccaadc2a))
(constraint (= (deobfucated #x000000002cb07cd6) #xffffffffd34f8329))
(constraint (= (deobfucated #x000000000febc081) #xfffffffff0143f7e))
(constraint (= (deobfucated #x00000000005f00b6) #xffffffffffa0ff49))
(check-synth)